
$ Database file written 2009-09-30
$ From database: PURE4                   
 ELEMENT /-   ELECTRON_GAS              0.0000E+00  0.0000E+00  0.0000E+00!
 ELEMENT VA   VACUUM                    0.0000E+00  0.0000E+00  0.0000E+00!
 ELEMENT AG   FCC_A1                    1.0787E+02  5.7446E+03  4.2551E+01!
 ELEMENT AL   FCC_A1                    2.6982E+01  4.5773E+03  2.8322E+01!
 ELEMENT CA   FCC_A1                    4.0078E+01  6.1965E+03  4.1589E+01!
 ELEMENT CE   FCC_A1                    1.4011E+02  0.0000E+00  0.0000E+00!
 ELEMENT CU   FCC_A1                    6.3546E+01  5.0041E+03  3.3150E+01!
 ELEMENT FE   BCC_A2                    5.5847E+01  4.4890E+03  2.7280E+01!
 ELEMENT GD   HCP_A3                    1.5725E+02  0.0000E+00  0.0000E+00!
 ELEMENT K    BCC_A2                    3.9098E+01  7.0835E+03  6.4672E+01!
 ELEMENT LA   DHCP                      1.3891E+02  0.0000E+00  0.0000E+00!
 ELEMENT LI   BCC_A2                    6.9410E+00  4.6233E+03  2.9095E+01!
 ELEMENT MG   HCP_A3                    2.4305E+01  4.9980E+03  3.2671E+01!
 ELEMENT MN   CBCC_A12                  5.4938E+01  4.9960E+03  3.2008E+01!
 ELEMENT NA   BCC_A2                    2.2990E+01  6.4475E+03  5.1447E+01!
 ELEMENT ND   DHCP                      1.4424E+02  0.0000E+00  0.0000E+00!
 ELEMENT NI   FCC_A1                    5.8690E+01  4.7870E+03  2.9796E+01!
 ELEMENT PR   DHCP                      1.4091E+02  0.0000E+00  0.0000E+00!
 ELEMENT SI   DIAMOND_A4                2.8085E+01  3.2175E+03  1.8820E+01!
 ELEMENT SN   BCT_A5                    1.1871E+02  6.3220E+03  5.1195E+01!
 ELEMENT SR   FCC_A1                    8.7620E+01  0.0000E+00  0.0000E+00!
 ELEMENT TH   FCC_A1                    2.3204E+02  0.0000E+00  0.0000E+00!
 ELEMENT Y    HCP_A3                    8.8906E+01  0.0000E+00  0.0000E+00!
 ELEMENT ZN   HCP_A3                    6.5390E+01  5.6568E+03  4.1631E+01!
 ELEMENT ZR   HCP_A3                    9.1224E+01  5.5663E+03  3.9181E+01!



 SPECIES  CU2                 CU2!
 SPECIES  ZZ                  AG0.5ZR0.5!
 SPECIES  CA2SN               CA2SN1 ! 
 SPECIES  MG2SN               MG2SN1 !
 SPECIES  LASN                LA1SN1 !
 
 FUNCTION GHSERAC    2.98130E+02  -7572.61519+100.596131*T-23.799*T*LN(T)
     -.00536685*T**2-20*T**(-1);  1.32300E+03  Y
      -22258.8152+235.419006*T-42*T*LN(T);  5.00000E+03  N !
 FUNCTION GHSERAG    2.98130E+02  -7209.512+118.202013*T-23.8463314*T*LN(T)
     -.001790585*T**2-3.98587E-07*T**3-12011*T**(-1);  1.23493E+03  Y
      -15095.252+190.266404*T-33.472*T*LN(T)+1.411773E+29*T**(-9);  
     3.00000E+03  N !
 FUNCTION GHSERAL    2.98130E+02  -7976.15+137.093038*T-24.3671976*T*LN(T)
     -.001884662*T**2-8.77664E-07*T**3+74092*T**(-1);  7.00000E+02  Y
      -11276.24+223.048446*T-38.5844296*T*LN(T)+.018531982*T**2
     -5.764227E-06*T**3+74092*T**(-1);  9.33470E+02  Y
      -11278.378+188.684153*T-31.748192*T*LN(T)-1.230524E+28*T**(-9);  
     2.90000E+03  N !
 FUNCTION GHSERCA    2.98130E+02  -4955.062+72.794266*T-16.3138*T*LN(T)
     -.01110455*T**2-133574*T**(-1);  1.11500E+03  Y
      -107304.428+799.982066*T-114.292247*T*LN(T)+.023733814*T**2
     -1.2438E-06*T**3+18245540*T**(-1);  3.00000E+03  N !
 FUNCTION GHSERCE    2.98130E+02  -7160.519+84.23022*T-22.3664*T*LN(T)
     -.0067103*T**2-3.20773E-07*T**3-18117*T**(-1);  1.00000E+03  Y
      -79678.506+659.4604*T-101.32248*T*LN(T)+.026046487*T**2
     -1.930297E-06*T**3+11531707*T**(-1);  2.00000E+03  Y
      -14198.639+190.370192*T-37.6978*T*LN(T);  4.00000E+03  N !
 FUNCTION GHSERCU    2.98130E+02  -7770.458+130.485235*T-24.112392*T*LN(T)
     -.00265684*T**2+1.29223E-07*T**3+52478*T**(-1);  1.35777E+03  Y
      -13542.026+183.803828*T-31.38*T*LN(T)+3.64167E+29*T**(-9);  
     3.20000E+03  N !
 FUNCTION GHSERFE    2.98130E+02  +1225.7+124.134*T-23.5143*T*LN(T)
     -.00439752*T**2-5.8927E-08*T**3+77359*T**(-1);  1.81100E+03  Y
      -25383.581+299.31255*T-46*T*LN(T)+2.29603E+31*T**(-9);  6.00000E+03  N 
     !
 FUNCTION GHSERGD    2.00000E+02  -6834.5855+97.13101*T-24.7214131*T*LN(T)
     -.00285240521*T**2-3.14674076E-07*T**3-8665.73348*T**(-1);  1.00000E+03 
      Y
      -6483.25362+95.6919924*T-24.6598297*T*LN(T)-.00185225011*T**2
     -6.61211607E-07*T**3;  1.50815E+03  Y
      -123124.992+699.125537*T-101.800197*T*LN(T)+.0150644246*T**2
     -6.39165948E-07*T**3+29356890.3*T**(-1);  3.60000E+03  N !
 FUNCTION GHSERKK    2.00000E+02  -16112.929+389.624197*T-77.0571464*T*LN(T)
     +.146211135*T**2-8.4949147E-05*T**3+243385*T**(-1);  3.36530E+02  Y
      -11122.441+192.586544*T-39.2885968*T*LN(T)+.012167386*T**2
     -2.64387E-06*T**3+43251*T**(-1)+1.19223E+22*T**(-9);  2.20000E+03  N !
 FUNCTION GHSERLA    2.98130E+02  -7968.403+120.284604*T-26.34*T*LN(T)
     -.001295165*T**2;  5.50000E+02  Y
      -3381.413+59.06113*T-17.1659411*T*LN(T)-.008371705*T**2
     +6.8932E-07*T**3-399448*T**(-1);  2.00000E+03  Y
      -15608.882+181.390071*T-34.3088*T*LN(T);  4.00000E+03  N !
 FUNCTION GHSERLI    2.00000E+02  -10583.817+217.637482*T-38.940488*T*LN(T)
     +.035466931*T**2-1.9869816E-05*T**3+159994*T**(-1);  4.53600E+02  Y
      -559579.123+10547.8799*T-1702.88865*T*LN(T)+2.25832944*T**2
     -5.71066077E-04*T**3+33885874*T**(-1);  5.00000E+02  Y
      -9062.994+179.278285*T-31.2283718*T*LN(T)+.002633221*T**2
     -4.38058E-07*T**3-102387*T**(-1);  3.00000E+03  N !
 FUNCTION GHSERMG    2.98130E+02  -8367.34+143.675547*T-26.1849782*T*LN(T)
     +4.858E-04*T**2-1.393669E-06*T**3+78950*T**(-1);  9.23000E+02  Y
      -14130.185+204.716215*T-34.3088*T*LN(T)+1.038192E+28*T**(-9);  
     3.00000E+03  N !
 FUNCTION GHSERMN    2.98130E+02  -8115.28+130.059*T-23.4582*T*LN(T)
     -.00734768*T**2+69827*T**(-1);  1.51900E+03  Y
      -28733.41+312.2648*T-48*T*LN(T)+1.656847E+30*T**(-9);  2.00000E+03  N !
 FUNCTION GHSERNA    2.00000E+02  -11989.434+260.548732*T-51.0393608*T*LN(T)
     +.072306633*T**2-4.3638283E-05*T**3+132154*T**(-1);  3.70870E+02  Y
      -11009.884+199.619999*T-38.1198801*T*LN(T)+.009745854*T**2
     -1.70664E-06*T**3+34342*T**(-1)+1.65071E+23*T**(-9);  2.30000E+03  N !
 FUNCTION GHSERND    2.98130E+02  -8402.93+111.10239*T-27.0858*T*LN(T)
     +5.56125E-04*T**2-2.6923E-06*T**3+34887*T**(-1);  9.00000E+02  Y
      -6984.083+83.662617*T-22.7536*T*LN(T)-.00420402*T**2-1.802E-06*T**3;  
     1.12800E+03  Y
      -225610.846+1673.04075*T-238.182873*T*LN(T)+.078615997*T**2
     -6.048207E-06*T**3+38810350*T**(-1);  1.79900E+03  Y
      -25742.331+276.257088*T-48.7854*T*LN(T);  1.80000E+03  N !
 FUNCTION GHSERNI    2.98130E+02  -5179.159+117.854*T-22.096*T*LN(T)
     -.0048407*T**2;  1.72800E+03  Y
      -27840.655+279.135*T-43.1*T*LN(T)+1.12754E+31*T**(-9);  3.00000E+03  N 
     !
 FUNCTION GHSERPR    2.98130E+02  -18803.379+356.587384*T-68.9176*T*LN(T)
      +.072929*T**2-2.5184333E-05*T**3+507385*T**(-1);  5.00000E+02  Y
      -7246.848+82.427384*T-22.8909*T*LN(T)-.00497126*T**2
      -1.22951E-06*T**3;  8.00000E+02  Y
      +95411.023-1073.55111*T+146.764*T*LN(T)-.1288205*T**2
      +1.5592233E-05*T**3-11588800*T**(-1);  1.06800E+03  Y
      -481663.131+4234.33311*T-606.120311*T*LN(T)+.305181506*T**2
      -3.0994702E-05*T**3+70926840*T**(-1);  1.20400E+03  Y
      -20014.678+227.685155*T-42.9697*T*LN(T);  3.80000E+03  N !
 FUNCTION GHSERSI    2.98130E+02  -8162.609+137.236859*T-22.8317533*T*LN(T)
     -.001912904*T**2-3.552E-09*T**3+176667*T**(-1);  1.68700E+03  Y
      -9457.642+167.281367*T-27.196*T*LN(T)-4.20369E+30*T**(-9);  
     3.60000E+03  N !
 FUNCTION GHSERSN    1.00000E+02  -7958.517+122.765451*T-25.858*T*LN(T)
     +5.1185E-04*T**2-3.192767E-06*T**3+18440*T**(-1);  2.50000E+02  Y
      -5855.135+65.443315*T-15.961*T*LN(T)-.0188702*T**2+3.121167E-06*T**3
     -61960*T**(-1);  5.05080E+02  Y
      +2524.724+4.005269*T-8.2590486*T*LN(T)-.016814429*T**2
     +2.623131E-06*T**3-1081244*T**(-1)-1.2307E+25*T**(-9);  8.00000E+02  Y
      -8256.959+138.99688*T-28.4512*T*LN(T)-1.2307E+25*T**(-9);  3.00000E+03 
      N !
 FUNCTION GHSERSR    2.98130E+02  -7532.367+107.183879*T-23.905*T*LN(T)
     -.00461225*T**2-1.67477E-07*T**3-2055*T**(-1);  8.20000E+02  Y
      -13380.102+153.196104*T-30.0905432*T*LN(T)-.003251266*T**2
     +1.84189E-07*T**3+850134*T**(-1);  3.00000E+03  N !
 FUNCTION GHSERTH    2.98130E+02  -7732.08+116.273975*T-24.841*T*LN(T)
     -.00236725*T**2-5.2883E-07*T**3+13010*T**(-1);  1.63300E+03  Y
      -37352.871+236.906118*T-39.107*T*LN(T)-.00358025*T**2+2.36893E-07*T**3
     +7981000*T**(-1);  2.90000E+03  Y
      -33353.313+283.231045*T-46.024*T*LN(T);  4.00000E+03  N !
 FUNCTION GHSERYY    1.00000E+02  -8011.09379+128.572856*T
     -25.6656992*T*LN(T)-.00175716414*T**2-4.17561786E-07*T**3
     +26911.509*T**(-1);  1.00000E+03  Y
      -7179.74574+114.497104*T-23.4941827*T*LN(T)-.0038211802*T**2
     -8.2534534E-08*T**3;  1.79515E+03  Y
      -67480.7761+382.124727*T-56.9527111*T*LN(T)+.00231774379*T**2
     -7.22513088E-08*T**3+18077162.6*T**(-1);  3.70000E+03  N !
 FUNCTION GHSERZN    2.98130E+02  -4315.967+116.900389*T-23.701314*T*LN(T)
     -.001712034*T**2-1.264963E-06*T**3;  6.92680E+02  Y
      -8100.739+170.77598*T-31.38*T*LN(T)+4.70514E+26*T**(-9);  1.70000E+03  
     N !
 FUNCTION GHSERZNR   2.98130E+02  -7285.787+118.470069*T-23.701314*T*LN(T)
     -.001712034*T**2-1.264963E-06*T**3;  6.92680E+02  Y
      -11070.559+172.34566*T-31.38*T*LN(T)+4.70514E+26*T**(-9);  1.70000E+03 
      N !
 FUNCTION GHSERZR    1.30000E+02  -7827.595+125.64905*T-24.1618*T*LN(T)
     -.00437791*T**2+34971*T**(-1);  2.12800E+03  Y
      -26085.921+262.724183*T-42.144*T*LN(T)-1.342896E+31*T**(-9);  
     6.00000E+03  N !

 FUNCTION GFCCMN    2.98130E+02 -3439.3+131.884*T
  -24.5177*T*LN(T)-.006*T**2+69600*T**(-1);  1.51900E+03  Y
   -26070.1+309.6664*T-48*T*LN(T)+3.86196E+30*T**(-9);  2.00000E+03  N REF1 !
 FUNCTION GHCPNI 2.98130E+02  1046+1.2552*T+GHSERNI#; 3.00000E+03 N REF1 !
 FUNCTION GBCCAL 2.98130E+02  10083-4.813*T+GHSERAL#; 3.00000E+03 N REF1!
 FUNCTION GBCCCU  2.98130E+02  -3753.458+129.230235*T
  -24.112392*T*LN(T)-.00265684*T**2+1.29223E-07*T**3+52478*T**(-1);  
  1.35777E+03  Y
   -9525.026+182.548828*T-31.38*T*LN(T)+3.64167E+29*T**(-9);  3.20000E+03  N 
  REF1   !
 FUNCTION GBCCMN    2.98130E+02  -3235.3+127.85*T-23.7*T*LN(T)
  -.00744271*T**2+60000*T**(-1);  1.51900E+03  Y
   -23188.83+307.7043*T-48*T*LN(T)+1.265152E+30*T**(-9);  2.00000E+03  N 
  REF1!
 FUNCTION GBCCNI     298.15  +8715.084-3.556*T+GHSERNI#;   6000  N !

 FUNCTION U1ALNI 2.98130E+02  -14556.4+2.945*T; 3.00000E+03 N [98W.Huang]! 
 FUNCTION GCALIQ   298.15 +5844.846+62.4838*T-16.3138*T*LN(T)
    -11.10455E-3*T**2-133574*T**(-1);   500 Y
    +7838.856+18.2979*T-8.9874787*T*LN(T)-22.66537E-3*T**2
    +3.338303E-6*T**3-230193*T**(-1);  1115 Y
    -2654.938+188.9223*T-35*T*LN(T);  3000 N ! 
 FUNCTION GSNLIQ     100 +7103.092-14.087767*T
    +1.47031E-18*T**7+GHSERSN#;   505.08 Y
    +6971.587-13.814382*T+1.2307E25*T**(-9)+GHSERSN#;  3000 N ! 
 FUNCTION GMGLIQ  298.15 -165.097+134.838617*T-26.1849782*T*LN(T)
    +0.4858E-3*T**2-1.393669E-6*T**3
    +78950*T**(-1)-80.176E-21*T**7;   923 Y
    -5439.869+195.324057*T-34.3088*T*LN(T);  3000 N ! 
 FUNCTION GSNDIAMOND_A4  100  -9579.608+114.007785*T-22.972*T*LN(T)
    -8.13975E-3*T**2+2.7288E-6*T**3+25615*T**(-1);   298.15 Y
    -9063.001+104.84654*T-21.5750771*T*LN(T)-8.575282E-3*T**2
    +1.784447E-6*T**3-2544*T**(-1);   800 Y
    -10909.351+147.396535*T-28.4512*T*LN(T);  3000 N !     
 FUNCTION GLALIQ   298.15  +13301.055-102.054485*T+15.3211809*T*LN(T)
     -18.8764383E-03*T**2+2.93775E-06*T**3-133541*T**(-1)+GHSERLA#;  550 Y
     +8714.066-40.83101*T+6.1471221*T*LN(T)-11.799898E-03*T**2
     +2.24843E-06*T**3+265907*T**(-1)+GHSERLA# ; 1134  Y 
     -560.591+111.957302*T-17.1428589*T*LN(T)+8.371705E-03*T**2
     -0.68932E-06*T**3+399448*T**(-1)+GHSERLA# ; 2000  Y  
     +11666.878-10.371639*T+GHSERLA# ; 4000  N !     
   FUNCTION GLIQZR  2.98130E+02  +10320.095+116.568238*T
  -24.1618*T*LN(T)-.00437791*T**2+34971*T**(-1)+1.6275E-22*T**7;  
  2.12800E+03  Y
   -8281.26+253.812609*T-42.144*T*LN(T);  6.00000E+03  N REF1 !

 FUNCTION UALNI      298.15  -14808.6667+2.9307*T;   6000   N !
 FUNCTION LALNI0     298.15  0.0; 6000  N !
 FUNCTION LALNI1     298.15  +7204-3.743*T;   6000   N !

 FUNCTION LB2ALVA    298.15  150000;   6000   N !
 FUNCTION GB2ALVA    298.15  +10000-T;   6000   N !
 FUNCTION LB2ALNI    298.15  -52440.88+11.30117*T;   6000   N !
 FUNCTION GB2ALNI    298.15  -152397.3+26.40575*T;   6000   N !
 FUNCTION LB2NIVA    298.15  -64024.38+26.49419*T;   6000   N !
 FUNCTION GB2NIVA    298.15  +162397.3-27.40575*T;   6000   N !
 FUNCTION AL20       298.15  +100000+20*GHSERAL;   6000   N !

 FUNCTION GFE3NI     298.15  +9171;   6000   N !
 FUNCTION GFENI3     298.15  -14400+12.55471*T;   6000   N !
 FUNCTION GFE2NI2    298.15  0.0; 6000.00  N !
 FUNCTION LFENI0     298.15  345.08;   6000   N !
 FUNCTION LFENI1     298.15  0.0;      6000  N !
 FUNCTION UN_ASS 298.15 0; 300 N !

$******************************************************************************
$
$
$******************************************************************************
 TYPE_DEFINITION % SEQ *!
 DEFINE_SYSTEM_DEFAULT ELEMENT 2 !
 DEFAULT_COMMAND DEF_SYS_ELEMENT VA /- !
$******************************************************************************
$
$                 II-1  SOLUTION PHASE
$
$******************************************************************************

 PHASE LIQUID  %  1  1.0  !
    CONSTITUENT LIQUID  :AG,AL,CA,CA2SN,CE,CU,FE,GD,K,LA,LASN,LI,MG,MG2SN,MN,
    NA,ND,NI,PR,SI,SN,SR,TH,Y,ZN,ZR,ZZ :  !

   PARAMETER G(LIQUID,AG;0)  2.98150E+02  +3815.564+109.310993*T
  -23.8463314*T*LN(T)-.001790585*T**2-3.98587E-07*T**3-12011*T**(-1)
  -1.033905E-20*T**7;  1.23493E+03  Y
   -3587.111+180.964656*T-33.472*T*LN(T);  3.00000E+03  N REF1   !
   PARAMETER G(LIQUID,AL;0)  2.98150E+02  +3028.879+125.251171*T
  -24.3671976*T*LN(T)-.001884662*T**2-8.77664E-07*T**3+74092*T**(-1)
  +7.9337E-20*T**7;  7.00000E+02  Y
   -271.21+211.206579*T-38.5844296*T*LN(T)+.018531982*T**2-5.764227E-06*T**3
  +74092*T**(-1)+7.9337E-20*T**7;  9.33470E+02  Y
   -795.996+177.430178*T-31.748192*T*LN(T);  2.90000E+03  N REF1   !
   PARAMETER G(LIQUID,CA;0)  2.98150E+02  +5844.846+62.4838*T
  -16.3138*T*LN(T)-.01110455*T**2-133574*T**(-1);  5.00000E+02  Y
   +7838.856+18.2979*T-8.9874787*T*LN(T)-.02266537*T**2+3.338303E-06*T**3
  -230193*T**(-1);  1.11500E+03  Y
   -2654.938+188.9223*T-35*T*LN(T);  3.00000E+03  N REF1   !
   PARAMETER G(LIQUID,CE;0)  2.98150E+02  +4117.865-11.423898*T
  -7.5383948*T*LN(T)-.02936407*T**2+4.827734E-06*T**3-198834*T**(-1);  
  1.00000E+03  Y
   -6730.605+183.023193*T-37.6978*T*LN(T);  4.00000E+03  N REF1   !
   PARAMETER G(LIQUID,CU;0)  2.98150E+02  +5194.277+120.973331*T
  -24.112392*T*LN(T)-.00265684*T**2+1.29223E-07*T**3+52478*T**(-1)
  -5.8489E-21*T**7;  1.35777E+03  Y
   -46.545+173.881484*T-31.38*T*LN(T);  3.20000E+03  N REF1   !
   PARAMETER G(LIQUID,FE;0)  2.98150E+02  +13265.87+117.57557*T
  -23.5143*T*LN(T)-.00439752*T**2-5.8927E-08*T**3+77359*T**(-1)
  -3.67516E-21*T**7;  1.81100E+03  Y
   -10838.83+291.302*T-46*T*LN(T);  6.00000E+03  N REF1   !
   PARAMETER G(LIQUID,GD;0)  1.00000E+02  +6225.4407+88.8092103*T
  -24.7214131*T*LN(T)-.00285240521*T**2-3.14674076E-07*T**3
  -8665.73348*T**(-1);  1.00000E+03  Y
   +146262.037-1208.70685*T+159.352082*T*LN(T)-.108247135*T**2
  +1.06945505E-05*T**3-19678357*T**(-1);  1.50815E+03  Y
   -5397.314+192.336215*T-38.5075*T*LN(T);  3.60000E+03  N REF1   !
   PARAMETER G(LIQUID,K;0)  2.00000E+02  -13794.833+382.737338*T
  -77.0571464*T*LN(T)+.146211135*T**2-8.4949147E-05*T**3+243385*T**(-1)
  -9.44E-19*T**7;  3.36530E+02  Y
   -8799.422+185.684327*T-39.2885968*T*LN(T)+.012167386*T**2
  -2.64387E-06*T**3+43251*T**(-1);  2.20000E+03  N REF1   !
   PARAMETER G(LIQUID,LA;0)  2.98150E+02  +5332.653+18.23012*T
  -11.0188191*T*LN(T)-.020171603*T**2+2.93775E-06*T**3-133541*T**(-1);  
  1.13400E+03  Y
   -3942.004+171.018431*T-34.3088*T*LN(T);  4.00000E+03  N REF1   !
   PARAMETER G(LIQUID,LASN;0)  2.98150E+02  -153350.659+.418349676*T+GLALIQ#
  +GSNLIQ#;  3.00000E+03  N  !
   PARAMETER G(LIQUID,LI;0)  2.00000E+02  -7883.612+211.841861*T
  -38.940488*T*LN(T)+.035466931*T**2-1.9869816E-05*T**3+159994*T**(-1);  
  2.50000E+02  Y
   +12015.027-362.187078*T+61.6104424*T*LN(T)-.182426463*T**2
  +6.3955671E-05*T**3-559968*T**(-1);  4.53600E+02  Y
   -6057.31+172.652183*T-31.2283718*T*LN(T)+.002633221*T**2-4.38058E-07*T**3
  -102387*T**(-1);  3.00000E+03  N REF1   !
   PARAMETER G(LIQUID,MG;0)  2.98150E+02  -165.097+134.838617*T
  -26.1849782*T*LN(T)+4.858E-04*T**2-1.393669E-06*T**3+78950*T**(-1)
  -8.0176E-20*T**7;  9.23000E+02  Y
   -5439.869+195.324057*T-34.3088*T*LN(T);  3.00000E+03  N REF1   !
   PARAMETER G(LIQUID,MG2SN;0)  2.98150E+02  -69092.9+97.6086*T
  -11.0957*T*LN(T)+2*GMGLIQ#+GSNLIQ#;  3.00000E+03  N  !
   PARAMETER G(LIQUID,MN;0)  2.98150E+02  +9744.63+117.4382*T
  -23.4582*T*LN(T)-.00734768*T**2+69827*T**(-1)-4.41929E-21*T**7;  
  1.51900E+03  Y
   -9993.9+299.036*T-48*T*LN(T);  2.00000E+03  N REF1   !
   PARAMETER G(LIQUID,NA;0)  2.00000E+02  -9408.414+253.596552*T
  -51.0393608*T*LN(T)+.072306633*T**2-4.3638283E-05*T**3+132154*T**(-1)
  -2.76132E-18*T**7;  3.70870E+02  Y
   -8400.44+192.587343*T-38.1198801*T*LN(T)+.009745854*T**2-1.70664E-06*T**3
  +34342*T**(-1);  2.30000E+03  N REF1   !
   PARAMETER G(LIQUID,ND;0)  2.98150E+02  -3351.187+109.517314*T
  -27.0858*T*LN(T)+5.56125E-04*T**2-2.6923E-06*T**3+34887*T**(-1);  
  3.00000E+02  Y
   +5350.01-86.593963*T+5.357301*T*LN(T)-.046955463*T**2+6.860782E-06*T**3
  -374380*T**(-1);  1.12800E+03  Y
   -16335.232+268.625903*T-48.7854*T*LN(T);  1.80000E+03  N REF1   !
   PARAMETER G(LIQUID,NI;0)  2.98150E+02  +11235.527+108.457*T
  -22.096*T*LN(T)-.0048407*T**2-3.82318E-21*T**7;  1.72800E+03  Y
   -9549.775+268.598*T-43.1*T*LN(T);  3.00000E+03  N REF1   !
   PARAMETER G(LIQUID,PR;0)  2.98150E+02  +3848.961-29.099465*T
  -4.7344931*T*LN(T)-.035119723*T**2+5.427467E-06*T**3-207406*T**(-1);  
  1.06800E+03  Y
   -10539.574+219.508805*T-42.9697*T*LN(T);  3.80000E+03  N REF1   !
   PARAMETER G(LIQUID,SI;0)  2.98150E+02  +42533.751+107.13742*T
  -22.8317533*T*LN(T)-.001912904*T**2-3.552E-09*T**3+176667*T**(-1)
  +2.09307E-21*T**7;  1.68700E+03  Y
   +40370.523+137.722298*T-27.196*T*LN(T);  3.60000E+03  N REF1   !
   PARAMETER G(LIQUID,SN;0)  1.00000E+02  -855.425+108.677684*T
  -25.858*T*LN(T)+5.1185E-04*T**2-3.192767E-06*T**3+18440*T**(-1)
  +1.47031E-18*T**7;  2.50000E+02  Y
   +1247.957+51.355548*T-15.961*T*LN(T)-.0188702*T**2+3.121167E-06*T**3
  -61960*T**(-1)+1.47031E-18*T**7;  5.05080E+02  Y
   +9496.31-9.809114*T-8.2590486*T*LN(T)-.016814429*T**2+2.623131E-06*T**3
  -1081244*T**(-1);  8.00000E+02  Y
   -1285.372+125.182498*T-28.4512*T*LN(T);  3.00000E+03  N REF1   !
   PARAMETER G(LIQUID,SR;0)  2.98150E+02  +2194.997-10.118994*T
  -5.0668978*T*LN(T)-.031840595*T**2+4.981237E-06*T**3-265559*T**(-1);  
  1.05000E+03  Y
   -10855.29+213.406219*T-39.463*T*LN(T);  3.00000E+03  N REF1   !
   PARAMETER G(LIQUID,TH;0)  2.98150E+02  +5031.109+110.886346*T
  -24.987*T*LN(T)-.00168345*T**2-9.09067E-07*T**3+10865*T**(-1);  
  1.49980E+03  Y
   -15602.847+127.657716*T-24.03*T*LN(T)-.0136421*T**2+1.210117E-06*T**3
  +7111100*T**(-1);  2.01450E+03  Y
   -17273.382+275.001274*T-46.024*T*LN(T);  4.00000E+03  N REF1   !
   PARAMETER G(LIQUID,Y;0)  1.00000E+02  +2098.50738+119.41873*T
  -24.6467508*T*LN(T)-.00347023463*T**2-8.12981167E-07*T**3
  +23713.7332*T**(-1);  1.00000E+03  Y
   +7386.44846+19.4520171*T-9.0681627*T*LN(T)-.0189533369*T**2
  +1.7595327E-06*T**3;  1.79515E+03  Y
   -12976.5957+257.400783*T-43.0952*T*LN(T);  3.70000E+03  N REF1   !
   PARAMETER G(LIQUID,ZN;0)  2.98150E+02  -128.574+108.177079*T
  -23.701314*T*LN(T)-.001712034*T**2-1.264963E-06*T**3-3.58958E-19*T**7;  
  6.92680E+02  Y
   -3620.391+161.608594*T-31.38*T*LN(T);  1.70000E+03  N REF1   !
   PARAMETER G(LIQUID,ZR;0)  2.98150E+02  +10320.095+116.568238*T
  -24.1618*T*LN(T)-.00437791*T**2+34971*T**(-1)+1.6275E-22*T**7;  
  2.12800E+03  Y
   -8281.26+253.812609*T-42.144*T*LN(T);  6.00000E+03  N REF1   !
      
          
$=============================================================================

 TYPE_DEFINITION & GES A_P_D BCC_A2 MAGNETIC  -1.0    4.00000E-01 !
 PHASE BCC_A2  %&  2 1   3 !
    CONSTITUENT BCC_A2  :AG,AL,CA,CE,CU,FE%,GD,K,LA,LI,MG,MN,NA,ND,NI,PR,SI,
    SN,SR,TH,Y%,ZN,ZR%,VA : VA :  !

   PARAMETER G(BCC_A2,AG:VA;0)  2.98150E+02  -3809.512+117.152013*T
  -23.8463314*T*LN(T)-.001790585*T**2-3.98587E-07*T**3-12011*T**(-1);  
  1.23493E+03  Y
   -11695.252+189.216404*T-33.472*T*LN(T)+1.411773E+29*T**(-9);  3.00000E+03 
   N REF1   !
   PARAMETER G(BCC_A2,AL:VA;0)  2.98150E+02  +2106.85+132.280038*T
  -24.3671976*T*LN(T)-.001884662*T**2-8.77664E-07*T**3+74092*T**(-1);  
  7.00000E+02  Y
   -1193.24+218.235446*T-38.5844296*T*LN(T)+.018531982*T**2
  -5.764227E-06*T**3+74092*T**(-1);  9.33470E+02  Y
   -1195.378+183.871153*T-31.748192*T*LN(T)-1.230524E+28*T**(-9);  
  2.90000E+03  N REF1   !
   PARAMETER G(BCC_A2,CA:VA;0)  2.98150E+02  -7020.852+142.970155*T
  -28.2541*T*LN(T)+.0072326*T**2-4.500217E-06*T**3+60578*T**(-1);  
  7.16000E+02  Y
   +1640.475+1.999694*T-6.276*T*LN(T)-.0161921*T**2-523000*T**(-1);  
  1.11500E+03  Y
   -142331.096+1023.54905*T-143.872698*T*LN(T)+.032543127*T**2
  -1.704079E-06*T**3+25353771*T**(-1);  3.00000E+03  N REF1   !
   PARAMETER G(BCC_A2,CE:VA;0)  2.98150E+02  -1354.69-5.21501*T
  -7.7305867*T*LN(T)-.029098402*T**2+4.784299E-06*T**3-196303*T**(-1);  
  1.00000E+03  Y
   -12101.106+187.449688*T-37.6142*T*LN(T);  1.07200E+03  Y
   -11950.375+186.333811*T-37.4627992*T*LN(T)-5.7145E-05*T**2+2.348E-09*T**3
  -25897*T**(-1);  4.00000E+03  N REF1   !
   PARAMETER G(BCC_A2,CU:VA;0)  2.98150E+02  -3753.458+129.230235*T
  -24.112392*T*LN(T)-.00265684*T**2+1.29223E-07*T**3+52478*T**(-1);  
  1.35777E+03  Y
   -9525.026+182.548828*T-31.38*T*LN(T)+3.64167E+29*T**(-9);  3.20000E+03  N 
  REF1   !
   PARAMETER G(BCC_A2,FE:VA;0)  2.98150E+02  +GHSERFE#;   6.00000E+03   N 
  REF1 !
   PARAMETER TC(BCC_A2,FE:VA;0)  2.98150E+02  1043;   6.00000E+03   N REF1 !
   PARAMETER BMAGN(BCC_A2,FE:VA;0)  2.98150E+02  2.22;   6.00000E+03   N 
  REF1 !
   PARAMETER G(BCC_A2,GD:VA;0)  1.00000E+02  -3600.77684+95.0191641*T
  -24.7214131*T*LN(T)-.00285240521*T**2-3.14674076E-07*T**3
  -8665.73348*T**(-1);  1.00000E+03  Y
   +152792.743-1349.58873*T+180.097094*T*LN(T)-.119550229*T**2
  +1.17915728E-05*T**3-22038836*T**(-1);  1.50815E+03  Y
   -15783.7618+202.222057*T-38.960425*T*LN(T);  1.58615E+03  Y
   -19850.5562+224.817909*T-41.904333*T*LN(T)+8.58222759E-04*T**2
  -3.77570269E-08*T**3+995428.573*T**(-1);  3.60000E+03  N REF1   !
   PARAMETER G(BCC_A2,K:VA;0)  2.00000E+02  +GHSERKK#;  2.20000E+03  N REF1  
   !
   PARAMETER G(BCC_A2,LA:VA;0)  2.98150E+02  -3952.161+88.072353*T
  -21.7919*T*LN(T)-.004045175*T**2-5.25865E-07*T**3;  8.00000E+02  Y
   +321682.673-3565.08252*T+513.440708*T*LN(T)-.387295093*T**2
  +4.9547989E-05*T**3-36581228*T**(-1);  1.13400E+03  Y
   -16377.894+218.492988*T-39.5388*T*LN(T);  1.19300E+03  Y
   -136609.91+1123.34397*T-163.413074*T*LN(T)+.053968535*T**2
  -4.056395E-06*T**3+21167204*T**(-1);  2.00000E+03  Y
   -8205.988+174.836315*T-34.3088*T*LN(T);  4.00000E+03  N REF1   !
   PARAMETER G(BCC_A2,LI:VA;0)  2.00000E+02  +GHSERLI#;  3.00000E+03  N REF1 
    !
   PARAMETER G(BCC_A2,MG:VA;0)  2.98150E+02  -5267.34+141.575547*T
  -26.1849782*T*LN(T)+4.858E-04*T**2-1.393669E-06*T**3+78950*T**(-1);  
  9.23000E+02  Y
   -11030.185+202.616215*T-34.3088*T*LN(T)+1.038192E+28*T**(-9);  
  3.00000E+03  N REF1   !
   PARAMETER G(BCC_A2,MN:VA;0)  2.98150E+02  -3235.3+127.85*T-23.7*T*LN(T)
  -.00744271*T**2+60000*T**(-1);  1.51900E+03  Y
   -23188.83+307.7043*T-48*T*LN(T)+1.265152E+30*T**(-9);  2.00000E+03  N 
  REF1   !
   PARAMETER TC(BCC_A2,MN:VA;0)  2.98150E+02  -580;  2.00000E+03  N  !
   PARAMETER BMAGN(BCC_A2,MN:VA;0)  2.98150E+02  -.27;  2.00000E+03  N  !
   PARAMETER G(BCC_A2,NA:VA;0)  2.00000E+02  +GHSERNA#;  2.30000E+03  N REF1 
    !
   PARAMETER G(BCC_A2,ND:VA;0)  2.98150E+02  -6965.635+110.556109*T
  -27.0858*T*LN(T)+5.56125E-04*T**2-2.6923E-06*T**3+34887*T**(-1);  
  4.00000E+02  Y
   +7312.2-153.033976*T+14.9956777*T*LN(T)-.050479*T**2+7.287217E-06*T**3
  -831810*T**(-1);  1.12800E+03  Y
   -18030.266+239.677322*T-44.5596*T*LN(T);  1.28900E+03  Y
   +334513.017-2363.9199*T+311.409193*T*LN(T)-.156030778*T**2
  +1.2408421E-05*T**3-64319604*T**(-1);  1.80000E+03  N REF1   !
   PARAMETER G(BCC_A2,NI:VA;0)  2.98150E+02  +3535.925+114.298*T
  -22.096*T*LN(T)-.0048407*T**2;  1.72800E+03  Y
   -19125.571+275.579*T-43.1*T*LN(T)+1.12754E+31*T**(-9);  3.00000E+03  N 
  REF1   !
   PARAMETER TC(BCC_A2,NI:VA;0)  2.98150E+02  575;  3.00000E+03  N  !
   PARAMETER BMAGN(BCC_A2,NI:VA;0)  2.98150E+02  .85;  3.00000E+03  N  !
   PARAMETER G(BCC_A2,PR:VA;0)  2.98150E+02  -2863.651+28.274853*T
  -13.7470527*T*LN(T)-.02284377*T**2+3.542468E-06*T**3-87486*T**(-1);  
  1.06800E+03  Y
   -11985.919+188.657121*T-38.451*T*LN(T);  1.20400E+03  Y
   +953.224+100.826281*T-26.6824313*T*LN(T)-.004106833*T**2+1.76214E-07*T**3
  -2473024*T**(-1);  3.80000E+03  N REF1   !
   PARAMETER G(BCC_A2,SI:VA;0)  2.98150E+02  +38837.391+114.736859*T
  -22.8317533*T*LN(T)-.001912904*T**2-3.552E-09*T**3+176667*T**(-1);  
  1.68700E+03  Y
   +37542.358+144.781367*T-27.196*T*LN(T)-4.20369E+30*T**(-9);  3.60000E+03  
  N REF1   !
   PARAMETER G(BCC_A2,SN:VA;0)  1.00000E+02  -3558.517+116.765451*T
  -25.858*T*LN(T)+5.1185E-04*T**2-3.192767E-06*T**3+18440*T**(-1);  
  2.50000E+02  Y
   -1455.135+59.443315*T-15.961*T*LN(T)-.0188702*T**2+3.121167E-06*T**3
  -61960*T**(-1);  5.05080E+02  Y
   +6924.724-1.994731*T-8.2590486*T*LN(T)-.016814429*T**2+2.623131E-06*T**3
  -1081244*T**(-1)-1.2307E+25*T**(-9);  8.00000E+02  Y
   -3856.959+132.99688*T-28.4512*T*LN(T)-1.2307E+25*T**(-9);  3.00000E+03  N 
  REF1   !
   PARAMETER G(BCC_A2,SR:VA;0)  2.98150E+02  -6779.234+116.583654*T
  -25.6708365*T*LN(T)-.003126762*T**2+2.2965E-07*T**3+27649*T**(-1);  
  8.20000E+02  Y
   -6970.594+122.067301*T-26.57*T*LN(T)-.0019493*T**2-1.7895E-08*T**3
  +16495*T**(-1);  1.05000E+03  Y
   +8168.357+.423037*T-9.7788593*T*LN(T)-.009539908*T**2+5.20221E-07*T**3
  -2414794*T**(-1);  3.00000E+03  N REF1   !
   PARAMETER G(BCC_A2,TH:VA;0)  2.98150E+02  -2321.06+133.531195*T
  -28.244*T*LN(T)+4.3775E-04*T**2-5.3048E-07*T**3+91190*T**(-1);  
  1.63300E+03  Y
   -115978.348+800.909049*T-116.453*T*LN(T)+.03098*T**2-2.536883E-06*T**3
  +27512600*T**(-1);  2.02300E+03  Y
   -33602.796+208.774709*T-35.813*T*LN(T)-.00346655*T**2+1.66067E-07*T**3
  +11876950*T**(-1);  3.60000E+03  Y
   -34333.615+283.181494*T-46.024*T*LN(T);  4.00000E+03  N REF1   !
   PARAMETER G(BCC_A2,Y:VA;0)  1.00000E+02  -833.658863+123.667346*T
  -25.5832578*T*LN(T)-.00237175965*T**2+9.10372497E-09*T**3
  +27340.0687*T**(-1);  1.00000E+03  Y
   -1297.79829+134.528352*T-27.3038477*T*LN(T)-5.41757644E-04*T**2
  -3.05012175E-07*T**3;  1.79515E+03  Y
   +15389.4975+.981325399*T-8.88296647*T*LN(T)-.00904576576*T**2
  +4.02944768E-07*T**3-2542575.96*T**(-1);  3.70000E+03  N REF1   !
   PARAMETER G(BCC_A2,ZN:VA;0)  2.98150E+02  -4398.827+115.959669*T
  -23.701314*T*LN(T)-.001712034*T**2-1.264963E-06*T**3;  6.92680E+02  Y
   -8183.599+169.83526*T-31.38*T*LN(T)+4.70514E+26*T**(-9);  1.70000E+03  N 
  REF1   !
   PARAMETER G(BCC_A2,ZR:VA;0)  2.98150E+02  -525.539+124.9457*T
  -25.607406*T*LN(T)-3.40084E-04*T**2-9.729E-09*T**3+25233*T**(-1)
  -7.6143E-11*T**4;  2.12800E+03  Y
   -30705.955+264.284163*T-42.144*T*LN(T)+1.276058E+32*T**(-9);  6.00000E+03 
   N REF1   !

$ SINCE the Va exiting in A2/B2 phase make the A2 too stabe in BINARY system
$ so we introduction the following parameter.

 PARAM G(BCC_A2,VA:VA;0)    298.15  0;       6000  N !
 
 PARAM G(BCC_A2,AG,VA:VA;0)  2.98150E+02  50000;  6.00000E+03 N  !
 PARAM G(BCC_A2,CA,VA:VA;0) 298.15  150000;   6000  N !
 PARAM G(BCC_A2,CE,VA:VA;0) 298.15  150000;   6000  N !
 PARAM G(BCC_A2,CU,VA:VA;0) 298.15  100000;  6000  N !
 PARAM G(BCC_A2,GD,VA:VA;0)  2.98150E+02  150000;  6.00000E+03 N  !
$ PARAM G(BCC_A2,FE,VA:VA;0) 298.15  150000;  6000  N !
 PARAM G(BCC_A2,K,VA:VA;0) 298.15  60000;   6000  N !
 PARAM G(BCC_A2,LA,VA:VA;0) 298.15  150000;   6000  N !
 PARAM G(BCC_A2,LI,VA:VA;0) 298.15  60000;   6000  N !
 PARAM G(BCC_A2,MG,VA:VA;0) 298.15  90000;   6000  N !
 PARAM G(BCC_A2,MN,VA:VA;0) 298.15  150000;  6000  N !
 PARAM G(BCC_A2,NA,VA:VA;0) 298.15  50000;   6000  N !
 PARAM G(BCC_A2,PR,VA:VA;0) 298.15  150000;   6000  N !
 PARAM G(BCC_A2,ND,VA:VA;0) 298.15  150000;   6000  N !
 PARAM G(BCC_A2,SI,VA:VA;0) 298.15 220000;   6000  N !
 PARAM G(BCC_A2,SN,VA:VA;0) 298.15  50000;    6000  N !
 PARAM G(BCC_A2,SR,VA:VA;0) 298.15  100000;    6000  N !
 PARAM G(BCC_A2,TH,VA:VA;0) 298.15  150000;    6000  N !
 PARAM G(BCC_A2,Y,VA:VA;0)  298.15 150000;   6000  N !
 PARAM G(BCC_A2,ZN,VA:VA;0) 298.15 60000;   6000  N !
 PARAM G(BCC_A2,ZR,VA:VA;0) 298.15  150000;   6000  N !

$=============================================================================
$ THIS PHASE HAS A DISORDERED CONTRIBUTION FROM BCC_A2   
 TYPE_DEFINITION ' GES AMEND_PHASE_DESCRIPTION BCC_B2 DIS_PART BCC_A2,,,!               
 PHASE BCC_B2  %'  3 .5   .5   3 !
    CONSTITUENT BCC_B2  :AG,AL%,CA,CE,CU%,FE%,GD,K,LA,LI,MG,MN,NA,ND,NI%,PR,SI,